50
1542 1659
1101 3189
1625 2506
1872 2690
1357 3992
2850 1135
3579 3438
2945 3890
1039 3319
1240 3931
844 1721
3203 1604
1297 2826
3700 1545
3355 3872
3829 1018
75 3081
79 2863
1321 220
2506 283
521 1072
1206 1539
3501 76
3306 3345
2955 2431
1931 260
1041 689
1807 1482
2726 1433
33 2641
3634 2608
3016 2171
2368 3717
3300 752
931 371
1305 2200
3192 1712
3087 2281
2283 2824
2360 3197
2556 10
52 2568
802 928
242 2313
720 3909
1912 1343
1912 1970
292 862
174 665
2900 1409